NAME : RC205
TYPE : CVRPTW
DIMENSION : 26
VEHICLES : 3
CAPACITY : 1000
SERVICE_TIME : 10
SCALE : 10
EDGE_WEIGHT_TYPE : FLOOR_2D
NODE_COORD_SECTION
1 40 50
2 25 85
3 22 75
4 22 85
5 20 80
6 20 85
7 18 75
8 15 75
9 15 80
10 10 35
11 10 40
12 8 40
13 8 45
14 5 35
15 5 45
16 2 40
17 0 40
18 0 45
19 44 5
20 42 10
21 42 15
22 40 5
23 40 15
24 38 5
25 38 15
26 35 5
DEMAND_SECTION
1 0
2 20
3 30
4 10
5 40
6 20
7 20
8 20
9 10
10 20
11 30
12 40
13 20
14 10
15 10
16 20
17 20
18 20
19 20
20 40
21 10
22 10
23 40
24 30
25 10
26 20
TIME_WINDOW_SECTION
1 0 960
2 431 911
3 30 510
4 291 771
5 674 734
6 40 520
7 393 502
8 120 600
9 397 457
10 401 461
11 535 622
12 225 285
13 43 523
14 683 743
15 35 366
16 204 264
17 204 425
18 698 827
19 306 483
20 199 428
21 494 699
22 45 525
23 383 486
24 231 291
25 609 872
26 821 881
DEPOT_SECTION
1 
-1
EOF
